6244 2710  0
6238 2712  0
6106 2580  1
6201 2675  1
6419 2884  3
6263 2736  4
6271 2714  4
6276 2674  4
6228 2702  4
6209 2669  5
6246 2718  6
6230 2668  7
6209 2677  7
6274 2699  8
6254 2728  10
6297 2767  11
6275 2683  12
6277 2668  12
6249 2723  13
6252 2726  14
6258 2721  15
6253 2727  15
6251 2725  16
6361 2792  17
6360 2811  17
6171 2645  18
6359 2833  19
6337 2809  19
6208 2680  20
6180 2646  21
6463 2900  22
6273 2742  23
6265 2739  24
6347 2787  25
6253 2715  26
6333 2769  27
6297 2771  28
6253 2708  29
6237 2711  30
6178 2652  31
6282 2749  32
6305 2769  33
6255 2713  34
6263 2711  34
6324 2707  34
6254 2722  34
6245 2708  35
6263 2737  36
6355 2829  37
6357 2828  37
6281 2674  39
6200 2657  40
6328 2793  41
6346 2820  42
6185 2659  43
6327 2801  44
6256 2712  45
6345 2819  46
6332 2798  47
6330 2804  47
6193 2657  48
6267 2741  49
